c turning on binary mode checking
c parsing input formula with 259840 variables and 1039919 clauses
c finished parsing, read 23206459 bytes from proof file
c detected empty clause; start verification via backward checking
c 2540 of 1039919 clauses in core                            
c 2778 of 604061 lemmas in core using 12193 resolution steps
c 0 RAT lemmas in core; 138 redundant literals in core lemmas
s VERIFIED
c verification time: 2.624 seconds
